15187 16813 1698
19414 15586 1383
17768 16232 1649
16486 17514 1636
15010 18990 1437
19653 13347 1571
14387 16613 1715
16231 15769 1700
19283 15717 1462
10115 19885 1349
11173 19827 1244
20752 12248 1453
15482 18518 1597
20074 13926 1523
20282 13718 1454
13722 17278 1688
15257 15743 1712
16907 16093 1683
18296 16704 1537
13474 19526 1401
17059 17941 1568
19220 15780 1477
20320 13680 1416
16556 16444 1682
19672 14328 1566
15200 17800 1663
20137 13863 1508
13505 19495 1453
20770 12230 1427
18729 14271 1631
13485 19515 1437
17094 16906 1644
15006 18994 1413
18219 15781 1651
20599 11401 1489
14001 18999 1561
19015 12985 1613
12243 19757 1303
12276 19724 1368
16994 15006 1687
17719 17281 1567
14607 18393 1625
11272 19728 1400
20897 11103 1389
16191 16809 1678
16726 18274 1561
15019 18981 1454
18918 15082 1616
20784 12216 1403
16608 18392 1492
